ADDGRID = .TRUE.
EDIFF = 1E-8
ENCUT = 500
GGA = PS
ISIF = 2
ISMEAR = 0
KPAR = 4
LASPH = .TRUE.
LCHARG = .FALSE.
LREAL = .FALSE.
LWAVE = .FALSE.
NELMIN = 5
NPAR = 2
NSW = 0
PREC = Accurate
SIGMA = 0.05
