Automatic 8x4x8
0
Monkhorst-Pack
8  4  8
