Se   Sn                                 
   1.0003429580352952     
     4.2158832988914723    0.0000000000000000    0.0000000000000000
     0.0000000000000000   11.5210816864477295    0.0000000000000000
     0.0000000000000000    0.0000000000000000    4.2028708803227675
   Se   Sn
     4     4
Direct
  0.0000000000000000  0.3587003526619199  0.2500000000000000
  0.0000000000000000  0.6412996473380801  0.7500000000000000
  0.5000000000000000  0.8587003526619199  0.2500000000000000
  0.5000000000000000  0.1412996473380801  0.7500000000000000
  0.0000000000000000  0.1223778163837181  0.2500000000000000
  0.0000000000000000  0.8776221756162812  0.7500000000000000
  0.5000000000000000  0.6223778243837188  0.2500000000000000
  0.5000000000000000  0.3776221756162812  0.7500000000000000

  0.00000000E+00  0.00000000E+00  0.00000000E+00
  0.00000000E+00  0.00000000E+00  0.00000000E+00
  0.00000000E+00  0.00000000E+00  0.00000000E+00
  0.00000000E+00  0.00000000E+00  0.00000000E+00
  0.00000000E+00  0.00000000E+00  0.00000000E+00
  0.00000000E+00  0.00000000E+00  0.00000000E+00
  0.00000000E+00  0.00000000E+00  0.00000000E+00
  0.00000000E+00  0.00000000E+00  0.00000000E+00
